Data path: /scratch/opt/lxu/CFLG/benchmarks/random_B
Instance: r_30_0.2_75.txt
Result path: /scratch/opt/lxu/CFLG/results/random_B
Solver: Gurobi
Time limit: 7200
Formulation: LEFPV2
Cover: Large
julia --project=. src/main.jl /scratch/opt/lxu/CFLG/benchmarks/random_B r_30_0.2_75.txt /scratch/opt/lxu/CFLG/results/random_B Gurobi 7200 LEFPV2 Large
The latest version of Julia in the `release` channel is 1.11.5+0.x64.linux.gnu. You currently have `1.11.4+0.x64.linux.gnu` installed. Run:

  juliaup update

in your terminal shell to install Julia 1.11.5+0.x64.linux.gnu and update the `release` channel to that version.
/scratch/opt/lxu/CFLG/benchmarks/random_B Gurobi 7200.0 /scratch/opt/lxu/CFLG/results/random_B r_30_0.2_75.txt LEFPV2 Large
/scratch/opt/lxu/CFLG/benchmarks/random_B/r_30_0.2_75.txt

 read graph
data loaded

problem_graph/original graph: node: 30/30 edge: 75/75 dlt: 1.338331712771451 break_avg_len: 0.6691658563857255 break_max_len: 0.9947526277799718Set parameter TokenServer to value "solice01.zib.de"
Set parameter Threads to value 1
Set parameter OutputFlag to value 1
Gurobi Optimizer version 12.0.1 build v12.0.1rc0 (linux64 - "Debian GNU/Linux 12 (bookworm)")

CPU model: Intel(R) Xeon(R) Gold 5122 CPU @ 3.60GHz, instruction set [SSE2|AVX|AVX2|AVX512]
Thread count: 8 physical cores, 16 logical processors, using up to 1 threads

Non-default parameters:
Threads  1

Optimize a model with 105 rows, 225 columns and 375 nonzeros
Model fingerprint: 0xdc7b3391
Coefficient statistics:
  Matrix range     [1e+00, 1e+00]
  Objective range  [1e+00, 1e+00]
  Bounds range     [1e+00, 1e+00]
  RHS range        [0e+00, 0e+00]
Presolve removed 105 rows and 225 columns
Presolve time: 0.02s
Presolve: All rows and columns removed
Iteration    Objective       Primal Inf.    Dual Inf.      Time
       0   -0.0000000e+00   0.000000e+00   0.000000e+00      0s

Solved in 0 iterations and 0.02 seconds (0.00 work units)
Optimal objective -0.000000000e+00

User-callback calls 35, time in user-callback 0.01 sec
elapsed CPU time: 1.232691 seconds
Set parameter TokenServer to value "solice01.zib.de"
Set parameter Threads to value 1
Set parameter OutputFlag to value 1
Set parameter MIPGap to value 0.0001
Set parameter MIPGapAbs to value 0.999998
Set parameter TimeLimit to value 7198.767309

 more cuts:truefalse
0 0
formulation:LEFPV20 75 30
Set parameter PreCrush to value 1

 model loaded

Gurobi Optimizer version 12.0.1 build v12.0.1rc0 (linux64 - "Debian GNU/Linux 12 (bookworm)")

CPU model: Intel(R) Xeon(R) Gold 5122 CPU @ 3.60GHz, instruction set [SSE2|AVX|AVX2|AVX512]
Thread count: 8 physical cores, 16 logical processors, using up to 1 threads

Non-default parameters:
TimeLimit  7198.767309
MIPGapAbs  0.999998
PreCrush  1
Threads  1

Optimize a model with 5374 rows, 2705 columns and 15897 nonzeros
Model fingerprint: 0xc0a5d82d
Variable types: 180 continuous, 2525 integer (2525 binary)
Coefficient statistics:
  Matrix range     [1e-06, 2e+00]
  Objective range  [1e+00, 1e+00]
  Bounds range     [3e-01, 1e+00]
  RHS range        [3e-01, 8e+00]
Found heuristic solution: objective 25.0000000
Presolve removed 896 rows and 110 columns
Presolve time: 0.05s
Presolved: 4478 rows, 2595 columns, 14764 nonzeros
Variable types: 105 continuous, 2490 integer (2490 binary)

Root relaxation: objective 6.664277e-01, 2198 iterations, 0.07 seconds (0.13 work units)

    Nodes    |    Current Node    |     Objective Bounds      |     Work
 Expl Unexpl |  Obj  Depth IntInf | Incumbent    BestBd   Gap | It/Node Time

     0     0    0.66643    0  261   25.00000    0.66643  97.3%     -    0s
H    0     0                      12.0000000    0.66643  94.4%     -    0s
H    0     0                       7.0000000    0.66643  90.5%     -    0s
elapsed CPU time: 1.3872066877939807e13 seconds
     0     0    1.16671    0  351    7.00000    1.16671  83.3%     -    1s
H    0     0                       6.0000000    1.16925  80.5%     -    1s
elapsed CPU time: 0.139511 seconds
     0     0    1.31087    0  336    6.00000    1.31087  78.2%     -    1s
elapsed CPU time: 0.151052 seconds
     0     0    1.31508    0  337    6.00000    1.31508  78.1%     -    1s
elapsed CPU time: 0.139994 seconds
     0     0    1.31579    0  359    6.00000    1.31579  78.1%     -    2s
elapsed CPU time: 0.139117 seconds
     0     0    1.42490    0  329    6.00000    1.42490  76.3%     -    2s
H    0     0                       5.0000000    1.42931  71.4%     -    2s
elapsed CPU time: 0.139827 seconds
     0     0    1.46095    0  325    5.00000    1.46095  70.8%     -    2s
elapsed CPU time: 0.135071 seconds
     0     0    1.46095    0  325    5.00000    1.46095  70.8%     -    2s
elapsed CPU time: 0.137409 seconds
     0     0    1.77379    0  299    5.00000    1.77379  64.5%     -    3s
elapsed CPU time: 0.138244 seconds
     0     0    1.83236    0  369    5.00000    1.83236  63.4%     -    3s
elapsed CPU time: 0.132601 seconds
     0     0    1.83292    0  338    5.00000    1.83292  63.3%     -    3s
elapsed CPU time: 0.135257 seconds
     0     0    1.83293    0  371    5.00000    1.83293  63.3%     -    3s
elapsed CPU time: 0.1349 seconds
     0     0    1.91749    0  388    5.00000    1.91749  61.7%     -    3s
elapsed CPU time: 0.136185 seconds
     0     0    1.92978    0  330    5.00000    1.92978  61.4%     -    4s
elapsed CPU time: 0.133961 seconds
     0     0    1.93038    0  384    5.00000    1.93038  61.4%     -    4s
elapsed CPU time: 0.13852 seconds
     0     0    1.93038    0  385    5.00000    1.93038  61.4%     -    4s
elapsed CPU time: 0.132422 seconds
     0     0    1.93038    0  375    5.00000    1.93038  61.4%     -    4s
elapsed CPU time: 0.134614 seconds
     0     0    1.93067    0  373    5.00000    1.93067  61.4%     -    4s
elapsed CPU time: 0.138782 seconds
     0     0    1.93067    0  380    5.00000    1.93067  61.4%     -    5s
elapsed CPU time: 0.134083 seconds
     0     0    1.93173    0  380    5.00000    1.93173  61.4%     -    5s
elapsed CPU time: 0.138025 seconds
     0     0    1.93453    0  363    5.00000    1.93453  61.3%     -    5s
elapsed CPU time: 0.135061 seconds
     0     0    1.93916    0  377    5.00000    1.93916  61.2%     -    5s
elapsed CPU time: 0.136692 seconds
     0     0    1.93916    0  367    5.00000    1.93916  61.2%     -    5s
elapsed CPU time: 0.135666 seconds
     0     0    1.93916    0  386    5.00000    1.93916  61.2%     -    6s
elapsed CPU time: 0.139647 seconds
     0     0    1.93916    0  385    5.00000    1.93916  61.2%     -    6s
elapsed CPU time: 0.135539 seconds
     0     0    1.93916    0  302    5.00000    1.93916  61.2%     -    6s
elapsed CPU time: 0.135171 seconds
H    0     0                       4.0000000    1.93924  51.5%     -    6s
elapsed CPU time: 0.137154 seconds
     0     2    1.93949    0  311    4.00000    1.93949  51.5%     -    7s
   420   239    2.64542   20  105    4.00000    2.17647  45.6%   107   10s
   783   397    3.00000   11  375    4.00000    2.33333  41.7%  95.4   15s
   793   404    2.50000   26  369    4.00000    2.33333  41.7%  94.2   20s
   809   416    2.48354   19  218    4.00000    2.33333  41.7%   138   25s
   917   421    2.52941   33  217    4.00000    2.35519  41.1%   171   30s
  1061   380    2.66667   26  112    4.00000    2.42857  39.3%   177   35s
  1215   360    3.00000   31  123    4.00000    2.54259  36.4%   182   40s
  1355   333    2.80000   25  182    4.00000    2.59228  35.2%   188   45s
  1541   275    2.87500   43  119    4.00000    2.70000  32.5%   194   50s
  1768   132    3.00000   41   62    4.00000    3.00000  25.0%   193   55s

Cutting planes:
  Learned: 1
  Cover: 22
  Implied bound: 7
  MIR: 9
  StrongCG: 1
  Flow cover: 9
  GUB cover: 49
  Zero half: 11
  RLT: 18
  Relax-and-lift: 3

Explored 1910 nodes (386133 simplex iterations) in 58.43 seconds (66.48 work units)
Thread count was 1 (of 16 available processors)

Solution count 6: 4 5 6 ... 25

Optimal solution found (tolerance 1.00e-04)
Best objective 4.000000000000e+00, best bound 4.000000000000e+00, gap 0.0000%

User-callback calls 16331, time in user-callback 5.73 sec

 sepatime1.387206687794337e13 0 0
4.0Stat(MathOptInterface.OPTIMAL, 4.0, 4.0, 0.0, 1.387206687794337e13, 1.232691, 58.43272590637207, 1910, Main.CFLG.LEFPV2, "", #undef)
